column=10;
row=10;
Board=[|0,0,0,0,0,0,0,0,0,0|0,0,0,0,0,0,0,0,0,0|4,6,5,0,2,0,0,2,0,2|0,0,0,0,0,0,0,0,0,6|2,0,0,0,0,0,0,0,0,3|6,0,0,0,0,0,0,0,0,0|0,0,0,0,0,0,0,0,0,0|0,0,0,0,0,0,0,0,0,0|0,0,0,0,0,0,0,0,0,0|0,0,0,0,0,0,0,0,0,0|];
Lighthouse=[|-1,-1,7,-1,-1,-1,-1,-1,-1,-1|-1,-1,-1,-1,-1,-1,-1,-1,-1,-1|-1,-1,-1,-1,-1,-1,-1,-1,-1,-1|-1,-1,-1,-1,-1,-1,-1,-1,-1,-1|-1,-1,-1,-1,-1,-1,-1,-1,-1,-1|-1,-1,-1,-1,-1,-1,-1,5,-1,-1|-1,-1,3,1,-1,-1,-1,4,-1,-1|-1,-1,-1,-1,3,-1,0,3,1,4|-1,-1,2,0,3,-1,0,3,-1,-1|-1,1,-1,-1,3,1,0,3,-1,-1|];
